(set-info :origin "benchmarks generated by liquid types http://goto.ucsd.edu/~rjhala/liquid/")
(set-logic HORN)
(declare-fun k_15
             (Int
              Int
              Int
              Int
              Int
              Int
              Int
              Int
              Int
              Int
              Int
              (Array Int Int)
              (Array Int Int)
              (Array Int Int))
             Bool)
(declare-fun k_14
             (Int
              Int
              Int
              Int
              Int
              Int
              Int
              Int
              Int
              Int
              Int
              (Array Int Int)
              (Array Int Int)
              (Array Int Int))
             Bool)
(assert (forall ((__cil_tmp6_main Int)
         (VV Int)
         (y_main__SSA__blk_1_1 Int)
         (x__csolve_heapify___main__SSA__blk_0_1 Int)
         (EREAD Int)
         (x__csolve_heapify___main Int)
         (i_main__SSA__blk_1_1 Int)
         (y_main Int)
         (y_main__SSA__blk_9_1 Int)
         (y_main__SSA__phi_4 Int)
         (__cil_tmp7_main Int)
         (EWRITE Int)
         (i_main__SSA__blk_9_1 Int)
         (i_main__SSA__phi_4 Int)
         (i_main Int)
         (__cil_tmp5_main Int)
         (BLOCK_BEGIN (Array Int Int))
         (BLOCK_END (Array Int Int))
         (UNCHECKED (Array Int Int)))
  (let ((a!1 (and (= y_main__SSA__blk_9_1 y_main__SSA__blk_9_1)
                  (= y_main__SSA__blk_1_1 y_main__SSA__blk_1_1)
                  (= y_main y_main)
                  (= x__csolve_heapify___main__SSA__blk_0_1
                     x__csolve_heapify___main__SSA__blk_0_1)
                  (= x__csolve_heapify___main x__csolve_heapify___main)
                  (= i_main__SSA__blk_9_1 i_main__SSA__blk_9_1)
                  (= i_main__SSA__blk_1_1 i_main__SSA__blk_1_1)
                  (= i_main i_main)
                  (= VV VV)
                  (= EWRITE EWRITE)
                  (= EREAD EREAD)
                  (= VV i_main__SSA__blk_9_1)
                  (not (= __cil_tmp5_main 0))
                  (= y_main__SSA__blk_9_1
                     (+ y_main__SSA__phi_4 __cil_tmp7_main))
                  (= y_main__SSA__blk_1_1 0)
                  (> x__csolve_heapify___main__SSA__blk_0_1 0)
                  (= x__csolve_heapify___main__SSA__blk_0_1
                     (select BLOCK_BEGIN x__csolve_heapify___main__SSA__blk_0_1))
                  (= (select BLOCK_END x__csolve_heapify___main__SSA__blk_0_1)
                     (+ x__csolve_heapify___main__SSA__blk_0_1 40))
                  (= i_main__SSA__blk_9_1 (+ i_main__SSA__phi_4 1))
                  (= i_main__SSA__blk_1_1 0)
                  (= __cil_tmp7_main (* i_main__SSA__phi_4 4))
                  (<= x__csolve_heapify___main__SSA__blk_0_1 __cil_tmp6_main)
                  (= __cil_tmp6_main
                     (+ x__csolve_heapify___main__SSA__blk_0_1
                        (* 4 i_main__SSA__phi_4)))
                  (= (select UNCHECKED __cil_tmp6_main)
                     (select UNCHECKED x__csolve_heapify___main__SSA__blk_0_1))
                  (= (select BLOCK_BEGIN __cil_tmp6_main)
                     (select BLOCK_BEGIN x__csolve_heapify___main__SSA__blk_0_1))
                  (= (select BLOCK_END __cil_tmp6_main)
                     (select BLOCK_END x__csolve_heapify___main__SSA__blk_0_1))
                  (= __cil_tmp5_main (ite (< i_main__SSA__phi_4 10) 1 0))
                  (k_15 EREAD
                        EWRITE
                        y_main__SSA__phi_4
                        i_main
                        i_main__SSA__blk_1_1
                        i_main__SSA__phi_4
                        x__csolve_heapify___main
                        x__csolve_heapify___main__SSA__blk_0_1
                        y_main
                        y_main__SSA__blk_1_1
                        y_main__SSA__phi_4
                        BLOCK_BEGIN
                        BLOCK_END
                        UNCHECKED)
                  (k_14 EREAD
                        EWRITE
                        i_main__SSA__phi_4
                        i_main
                        i_main__SSA__blk_1_1
                        i_main__SSA__phi_4
                        x__csolve_heapify___main
                        x__csolve_heapify___main__SSA__blk_0_1
                        y_main
                        y_main__SSA__blk_1_1
                        y_main__SSA__phi_4
                        BLOCK_BEGIN
                        BLOCK_END
                        UNCHECKED)
                  true)))
    (=> a!1
        (k_14 EREAD
              EWRITE
              VV
              i_main
              i_main__SSA__blk_1_1
              i_main__SSA__blk_9_1
              x__csolve_heapify___main
              x__csolve_heapify___main__SSA__blk_0_1
              y_main
              y_main__SSA__blk_1_1
              y_main__SSA__blk_9_1
              BLOCK_BEGIN
              BLOCK_END
              UNCHECKED)))))
(assert (forall ((__cil_tmp6_main Int)
         (VV Int)
         (y_main__SSA__blk_1_1 Int)
         (x__csolve_heapify___main__SSA__blk_0_1 Int)
         (EREAD Int)
         (x__csolve_heapify___main Int)
         (i_main__SSA__blk_1_1 Int)
         (y_main Int)
         (y_main__SSA__blk_9_1 Int)
         (y_main__SSA__phi_4 Int)
         (__cil_tmp7_main Int)
         (EWRITE Int)
         (i_main__SSA__blk_9_1 Int)
         (i_main__SSA__phi_4 Int)
         (i_main Int)
         (__cil_tmp5_main Int)
         (BLOCK_BEGIN (Array Int Int))
         (BLOCK_END (Array Int Int))
         (UNCHECKED (Array Int Int)))
  (let ((a!1 (and (= y_main__SSA__blk_9_1 y_main__SSA__blk_9_1)
                  (= y_main__SSA__blk_1_1 y_main__SSA__blk_1_1)
                  (= y_main y_main)
                  (= x__csolve_heapify___main__SSA__blk_0_1
                     x__csolve_heapify___main__SSA__blk_0_1)
                  (= x__csolve_heapify___main x__csolve_heapify___main)
                  (= i_main__SSA__blk_9_1 i_main__SSA__blk_9_1)
                  (= i_main__SSA__blk_1_1 i_main__SSA__blk_1_1)
                  (= i_main i_main)
                  (= VV VV)
                  (= EWRITE EWRITE)
                  (= EREAD EREAD)
                  (= VV y_main__SSA__blk_9_1)
                  (not (= __cil_tmp5_main 0))
                  (= y_main__SSA__blk_9_1
                     (+ y_main__SSA__phi_4 __cil_tmp7_main))
                  (= y_main__SSA__blk_1_1 0)
                  (> x__csolve_heapify___main__SSA__blk_0_1 0)
                  (= x__csolve_heapify___main__SSA__blk_0_1
                     (select BLOCK_BEGIN x__csolve_heapify___main__SSA__blk_0_1))
                  (= (select BLOCK_END x__csolve_heapify___main__SSA__blk_0_1)
                     (+ x__csolve_heapify___main__SSA__blk_0_1 40))
                  (= i_main__SSA__blk_9_1 (+ i_main__SSA__phi_4 1))
                  (= i_main__SSA__blk_1_1 0)
                  (= __cil_tmp7_main (* i_main__SSA__phi_4 4))
                  (<= x__csolve_heapify___main__SSA__blk_0_1 __cil_tmp6_main)
                  (= __cil_tmp6_main
                     (+ x__csolve_heapify___main__SSA__blk_0_1
                        (* 4 i_main__SSA__phi_4)))
                  (= (select UNCHECKED __cil_tmp6_main)
                     (select UNCHECKED x__csolve_heapify___main__SSA__blk_0_1))
                  (= (select BLOCK_BEGIN __cil_tmp6_main)
                     (select BLOCK_BEGIN x__csolve_heapify___main__SSA__blk_0_1))
                  (= (select BLOCK_END __cil_tmp6_main)
                     (select BLOCK_END x__csolve_heapify___main__SSA__blk_0_1))
                  (= __cil_tmp5_main (ite (< i_main__SSA__phi_4 10) 1 0))
                  (k_15 EREAD
                        EWRITE
                        y_main__SSA__phi_4
                        i_main
                        i_main__SSA__blk_1_1
                        i_main__SSA__phi_4
                        x__csolve_heapify___main
                        x__csolve_heapify___main__SSA__blk_0_1
                        y_main
                        y_main__SSA__blk_1_1
                        y_main__SSA__phi_4
                        BLOCK_BEGIN
                        BLOCK_END
                        UNCHECKED)
                  (k_14 EREAD
                        EWRITE
                        i_main__SSA__phi_4
                        i_main
                        i_main__SSA__blk_1_1
                        i_main__SSA__phi_4
                        x__csolve_heapify___main
                        x__csolve_heapify___main__SSA__blk_0_1
                        y_main
                        y_main__SSA__blk_1_1
                        y_main__SSA__phi_4
                        BLOCK_BEGIN
                        BLOCK_END
                        UNCHECKED)
                  true)))
    (=> a!1
        (k_15 EREAD
              EWRITE
              VV
              i_main
              i_main__SSA__blk_1_1
              i_main__SSA__blk_9_1
              x__csolve_heapify___main
              x__csolve_heapify___main__SSA__blk_0_1
              y_main
              y_main__SSA__blk_1_1
              y_main__SSA__blk_9_1
              BLOCK_BEGIN
              BLOCK_END
              UNCHECKED)))))
(assert (forall ((VV Int)
         (y_main__SSA__blk_1_1 Int)
         (x__csolve_heapify___main__SSA__blk_0_1 Int)
         (EREAD Int)
         (x__csolve_heapify___main Int)
         (i_main__SSA__blk_1_1_smt_11_0 Int)
         (y_main__SSA__blk_1_1_smt_11_1 Int)
         (y_main Int)
         (EWRITE Int)
         (i_main__SSA__blk_1_1 Int)
         (i_main Int)
         (BLOCK_BEGIN (Array Int Int))
         (BLOCK_END (Array Int Int))
         (UNCHECKED (Array Int Int)))
  (=> (and (= y_main__SSA__blk_1_1 y_main__SSA__blk_1_1_smt_11_1)
           (= y_main__SSA__blk_1_1 y_main__SSA__blk_1_1)
           (= y_main y_main)
           (= x__csolve_heapify___main__SSA__blk_0_1
              x__csolve_heapify___main__SSA__blk_0_1)
           (= x__csolve_heapify___main x__csolve_heapify___main)
           (= i_main__SSA__blk_1_1 i_main__SSA__blk_1_1_smt_11_0)
           (= i_main__SSA__blk_1_1 i_main__SSA__blk_1_1)
           (= i_main i_main)
           (= VV VV)
           (= EWRITE EWRITE)
           (= EREAD EREAD)
           (= VV i_main__SSA__blk_1_1)
           (= y_main__SSA__blk_1_1 0)
           (> x__csolve_heapify___main__SSA__blk_0_1 0)
           (= x__csolve_heapify___main__SSA__blk_0_1
              (select BLOCK_BEGIN x__csolve_heapify___main__SSA__blk_0_1))
           (= (select BLOCK_END x__csolve_heapify___main__SSA__blk_0_1)
              (+ x__csolve_heapify___main__SSA__blk_0_1 40))
           (= i_main__SSA__blk_1_1 0)
           true)
      (k_14 EREAD
            EWRITE
            VV
            i_main
            i_main__SSA__blk_1_1
            i_main__SSA__blk_1_1_smt_11_0
            x__csolve_heapify___main
            x__csolve_heapify___main__SSA__blk_0_1
            y_main
            y_main__SSA__blk_1_1
            y_main__SSA__blk_1_1_smt_11_1
            BLOCK_BEGIN
            BLOCK_END
            UNCHECKED))))
(assert (forall ((VV Int)
         (y_main__SSA__blk_1_1 Int)
         (x__csolve_heapify___main__SSA__blk_0_1 Int)
         (EREAD Int)
         (y_main__SSA__blk_1_1_smt_10_3 Int)
         (x__csolve_heapify___main Int)
         (y_main Int)
         (EWRITE Int)
         (i_main__SSA__blk_1_1 Int)
         (i_main__SSA__blk_1_1_smt_10_2 Int)
         (i_main Int)
         (BLOCK_BEGIN (Array Int Int))
         (BLOCK_END (Array Int Int))
         (UNCHECKED (Array Int Int)))
  (=> (and (= y_main__SSA__blk_1_1 y_main__SSA__blk_1_1_smt_10_3)
           (= y_main__SSA__blk_1_1 y_main__SSA__blk_1_1)
           (= y_main y_main)
           (= x__csolve_heapify___main__SSA__blk_0_1
              x__csolve_heapify___main__SSA__blk_0_1)
           (= x__csolve_heapify___main x__csolve_heapify___main)
           (= i_main__SSA__blk_1_1 i_main__SSA__blk_1_1_smt_10_2)
           (= i_main__SSA__blk_1_1 i_main__SSA__blk_1_1)
           (= i_main i_main)
           (= VV VV)
           (= EWRITE EWRITE)
           (= EREAD EREAD)
           (= VV y_main__SSA__blk_1_1)
           (= y_main__SSA__blk_1_1 0)
           (> x__csolve_heapify___main__SSA__blk_0_1 0)
           (= x__csolve_heapify___main__SSA__blk_0_1
              (select BLOCK_BEGIN x__csolve_heapify___main__SSA__blk_0_1))
           (= (select BLOCK_END x__csolve_heapify___main__SSA__blk_0_1)
              (+ x__csolve_heapify___main__SSA__blk_0_1 40))
           (= i_main__SSA__blk_1_1 0)
           true)
      (k_15 EREAD
            EWRITE
            VV
            i_main
            i_main__SSA__blk_1_1
            i_main__SSA__blk_1_1_smt_10_2
            x__csolve_heapify___main
            x__csolve_heapify___main__SSA__blk_0_1
            y_main
            y_main__SSA__blk_1_1
            y_main__SSA__blk_1_1_smt_10_3
            BLOCK_BEGIN
            BLOCK_END
            UNCHECKED))))
(assert (forall ((y_main__SSA__blk_1_1 Int)
         (x__csolve_heapify___main__SSA__blk_0_1 Int)
         (EREAD Int)
         (y_main Int)
         (x__csolve_heapify___main Int)
         (y_main__SSA__phi_4 Int)
         (EWRITE Int)
         (i_main__SSA__blk_1_1 Int)
         (i_main__SSA__phi_4 Int)
         (i_main Int)
         (__cil_tmp5_main Int)
         (BLOCK_BEGIN (Array Int Int))
         (BLOCK_END (Array Int Int))
         (UNCHECKED (Array Int Int)))
  (let ((a!1 (and (not (<= 0 i_main__SSA__phi_4))
                  (k_14 EREAD
                        EWRITE
                        i_main__SSA__phi_4
                        i_main
                        i_main__SSA__blk_1_1
                        i_main__SSA__phi_4
                        x__csolve_heapify___main
                        x__csolve_heapify___main__SSA__blk_0_1
                        y_main
                        y_main__SSA__blk_1_1
                        y_main__SSA__phi_4
                        BLOCK_BEGIN
                        BLOCK_END
                        UNCHECKED)
                  (k_15 EREAD
                        EWRITE
                        y_main__SSA__phi_4
                        i_main
                        i_main__SSA__blk_1_1
                        i_main__SSA__phi_4
                        x__csolve_heapify___main
                        x__csolve_heapify___main__SSA__blk_0_1
                        y_main
                        y_main__SSA__blk_1_1
                        y_main__SSA__phi_4
                        BLOCK_BEGIN
                        BLOCK_END
                        UNCHECKED)
                  (= __cil_tmp5_main (ite (< i_main__SSA__phi_4 10) 1 0))
                  (= i_main__SSA__blk_1_1 0)
                  (= (select BLOCK_END x__csolve_heapify___main__SSA__blk_0_1)
                     (+ x__csolve_heapify___main__SSA__blk_0_1 40))
                  (= x__csolve_heapify___main__SSA__blk_0_1
                     (select BLOCK_BEGIN x__csolve_heapify___main__SSA__blk_0_1))
                  (> x__csolve_heapify___main__SSA__blk_0_1 0)
                  (= y_main__SSA__blk_1_1 0)
                  (not (= __cil_tmp5_main 0))
                  true)))
    (=> a!1 false))))
(assert (forall ((VV Int)
         (y_main__SSA__blk_1_1 Int)
         (x__csolve_heapify___main__SSA__blk_0_1 Int)
         (EREAD Int)
         (y_main Int)
         (__cil_tmp6_main Int)
         (x__csolve_heapify___main Int)
         (y_main__SSA__phi_4 Int)
         (EWRITE Int)
         (i_main__SSA__blk_1_1 Int)
         (i_main__SSA__phi_4 Int)
         (i_main Int)
         (__cil_tmp5_main Int)
         (BLOCK_BEGIN (Array Int Int))
         (BLOCK_END (Array Int Int))
         (UNCHECKED (Array Int Int)))
  (let ((a!1 (or (= (select UNCHECKED VV) 1)
                 (and (<= (select BLOCK_BEGIN VV) VV)
                      (< VV (select BLOCK_END VV))
                      true)
                 false)))
  (let ((a!2 (and (not a!1)
                  (k_14 EREAD
                        EWRITE
                        i_main__SSA__phi_4
                        i_main
                        i_main__SSA__blk_1_1
                        i_main__SSA__phi_4
                        x__csolve_heapify___main
                        x__csolve_heapify___main__SSA__blk_0_1
                        y_main
                        y_main__SSA__blk_1_1
                        y_main__SSA__phi_4
                        BLOCK_BEGIN
                        BLOCK_END
                        UNCHECKED)
                  (k_15 EREAD
                        EWRITE
                        y_main__SSA__phi_4
                        i_main
                        i_main__SSA__blk_1_1
                        i_main__SSA__phi_4
                        x__csolve_heapify___main
                        x__csolve_heapify___main__SSA__blk_0_1
                        y_main
                        y_main__SSA__blk_1_1
                        y_main__SSA__phi_4
                        BLOCK_BEGIN
                        BLOCK_END
                        UNCHECKED)
                  (= __cil_tmp5_main (ite (< i_main__SSA__phi_4 10) 1 0))
                  (= (select BLOCK_END __cil_tmp6_main)
                     (select BLOCK_END x__csolve_heapify___main__SSA__blk_0_1))
                  (= (select BLOCK_BEGIN __cil_tmp6_main)
                     (select BLOCK_BEGIN x__csolve_heapify___main__SSA__blk_0_1))
                  (= (select UNCHECKED __cil_tmp6_main)
                     (select UNCHECKED x__csolve_heapify___main__SSA__blk_0_1))
                  (= __cil_tmp6_main
                     (+ x__csolve_heapify___main__SSA__blk_0_1
                        (* 4 i_main__SSA__phi_4)))
                  (<= x__csolve_heapify___main__SSA__blk_0_1 __cil_tmp6_main)
                  (= i_main__SSA__blk_1_1 0)
                  (= (select BLOCK_END x__csolve_heapify___main__SSA__blk_0_1)
                     (+ x__csolve_heapify___main__SSA__blk_0_1 40))
                  (= x__csolve_heapify___main__SSA__blk_0_1
                     (select BLOCK_BEGIN x__csolve_heapify___main__SSA__blk_0_1))
                  (> x__csolve_heapify___main__SSA__blk_0_1 0)
                  (= y_main__SSA__blk_1_1 0)
                  (not (= __cil_tmp5_main 0))
                  (< VV (+ __cil_tmp6_main 4))
                  (<= __cil_tmp6_main VV)
                  (= (select UNCHECKED VV) (select UNCHECKED __cil_tmp6_main))
                  (= (select BLOCK_END VV) (select BLOCK_END __cil_tmp6_main))
                  (= (select BLOCK_BEGIN VV)
                     (select BLOCK_BEGIN __cil_tmp6_main))
                  true)))
    (=> a!2 false)))))
(assert (forall ((VV Int)
         (BLOCK_BEGIN (Array Int Int))
         (BLOCK_END (Array Int Int))
         (UNCHECKED (Array Int Int)))
  (=> (and (not (>= VV 0)) (= VV 40) true) false)))

(check-sat)
